\* Min Routes *\
Minimize
OBJ: 9999999999 Route_(0,_0,_'T0001') + 9999999999 Route_(0,_0,_'T0002')
 + 9999999999 Route_(0,_0,_'T0003') + 9999999999 Route_(0,_0,_'T0004')
 + 9999999999 Route_(0,_0,_'T0005') + 3249.66004043 Route_(0,_1,_'T0001')
 + 1970.98891827 Route_(0,_1,_'T0002') + 1361.80717466 Route_(0,_1,_'T0003')
 + 1011.66174069 Route_(0,_1,_'T0004') + 226.962431164 Route_(0,_1,_'T0005')
 + 3710.79431913 Route_(0,_2,_'T0001') + 2192.05204086 Route_(0,_2,_'T0002')
 + 2335.78331207 Route_(0,_2,_'T0003') + 349.88677933 Route_(0,_2,_'T0004')
 + 1420.4206829 Route_(0,_2,_'T0005') + 3752.95208984 Route_(0,_3,_'T0001')
 + 3252.27714122 Route_(0,_3,_'T0002') + 516.12985682 Route_(0,_3,_'T0003')
 + 2530.43870802 Route_(0,_3,_'T0004') + 2067.85311036 Route_(0,_3,_'T0005')
 + 2281.33534827 Route_(0,_4,_'T0001') + 569.022676232 Route_(0,_4,_'T0002')
 + 2610.98877461 Route_(0,_4,_'T0003') + 1932.11864042 Route_(0,_4,_'T0004')
 + 2313.04916333 Route_(0,_4,_'T0005') + 6731.53986344 Route_(0,_5,_'T0001')
 + 6864.25882594 Route_(0,_5,_'T0002') + 3582.90549885 Route_(0,_5,_'T0003')
 + 5627.71462615 Route_(0,_5,_'T0004') + 5814.63774862 Route_(0,_5,_'T0005')
 + 9999999999 Route_(1,_0,_'T0001') + 9999999999 Route_(1,_0,_'T0002')
 + 9999999999 Route_(1,_0,_'T0003') + 9999999999 Route_(1,_0,_'T0004')
 + 9999999999 Route_(1,_0,_'T0005') + 9999999999 Route_(1,_1,_'T0001')
 + 9999999999 Route_(1,_1,_'T0002') + 9999999999 Route_(1,_1,_'T0003')
 + 9999999999 Route_(1,_1,_'T0004') + 9999999999 Route_(1,_1,_'T0005')
 + 1079.80365981 Route_(1,_2,_'T0001') + 1202.28971089 Route_(1,_2,_'T0002')
 + 983.880547174 Route_(1,_2,_'T0003') + 993.682503187 Route_(1,_2,_'T0004')
 + 1202.28971089 Route_(1,_2,_'T0005') + 2050.19427922 Route_(1,_3,_'T0001')
 + 2282.75526282 Route_(1,_3,_'T0002') + 1868.06763519 Route_(1,_3,_'T0003')
 + 1886.67834646 Route_(1,_3,_'T0004') + 2282.75526282 Route_(1,_3,_'T0005')
 + 2087.68699851 Route_(1,_4,_'T0001') + 2324.50091744 Route_(1,_4,_'T0002')
 + 1902.22973201 Route_(1,_4,_'T0003') + 1921.18078477 Route_(1,_4,_'T0004')
 + 2324.50091744 Route_(1,_4,_'T0005') + 5415.93563675 Route_(1,_5,_'T0001')
 + 6030.28488722 Route_(1,_5,_'T0002') + 4934.81724138 Route_(1,_5,_'T0003')
 + 4983.98058918 Route_(1,_5,_'T0004') + 6030.28488722 Route_(1,_5,_'T0005')
 + 9999999999 Route_(2,_0,_'T0001') + 9999999999 Route_(2,_0,_'T0002')
 + 9999999999 Route_(2,_0,_'T0003') + 9999999999 Route_(2,_0,_'T0004')
 + 9999999999 Route_(2,_0,_'T0005') + 1095.33968091 Route_(2,_1,_'T0001')
 + 1219.5880393 Route_(2,_1,_'T0002') + 998.036443762 Route_(2,_1,_'T0003')
 + 1007.97942856 Route_(2,_1,_'T0004') + 1219.5880393 Route_(2,_1,_'T0005')
 + 9999999999 Route_(2,_2,_'T0001') + 9999999999 Route_(2,_2,_'T0002')
 + 9999999999 Route_(2,_2,_'T0003') + 9999999999 Route_(2,_2,_'T0004')
 + 9999999999 Route_(2,_2,_'T0005') + 2720.79380491 Route_(2,_3,_'T0001')
 + 3029.42332839 Route_(2,_3,_'T0002') + 2479.09522551 Route_(2,_3,_'T0003')
 + 2503.79332776 Route_(2,_3,_'T0004') + 3029.42332839 Route_(2,_3,_'T0005')
 + 1721.11329529 Route_(2,_4,_'T0001') + 1916.34542762 Route_(2,_4,_'T0002')
 + 1568.2201809 Route_(2,_4,_'T0003') + 1583.84364787 Route_(2,_4,_'T0004')
 + 1916.34542762 Route_(2,_4,_'T0005') + 6078.14588151 Route_(2,_5,_'T0001')
 + 6767.61204526 Route_(2,_5,_'T0002') + 5538.20080287 Route_(2,_5,_'T0003')
 + 5593.37538765 Route_(2,_5,_'T0004') + 6767.61204526 Route_(2,_5,_'T0005')
 + 9999999999 Route_(3,_0,_'T0001') + 9999999999 Route_(3,_0,_'T0002')
 + 9999999999 Route_(3,_0,_'T0003') + 9999999999 Route_(3,_0,_'T0004')
 + 9999999999 Route_(3,_0,_'T0005') + 2060.32822593 Route_(3,_1,_'T0001')
 + 2294.0387399 Route_(3,_1,_'T0002') + 1877.30134443 Route_(3,_1,_'T0003')
 + 1896.00404696 Route_(3,_1,_'T0004') + 2294.0387399 Route_(3,_1,_'T0005')
 + 3129.90233163 Route_(3,_2,_'T0001') + 3484.93852121 Route_(3,_2,_'T0002')
 + 2851.86106813 Route_(3,_2,_'T0003') + 2880.27286754 Route_(3,_2,_'T0004')
 + 3484.93852121 Route_(3,_2,_'T0005') + 9999999999 Route_(3,_3,_'T0001')
 + 9999999999 Route_(3,_3,_'T0002') + 9999999999 Route_(3,_3,_'T0003')
 + 9999999999 Route_(3,_3,_'T0004') + 9999999999 Route_(3,_3,_'T0005')
 + 3310.22878783 Route_(3,_4,_'T0001') + 3685.7200623 Route_(3,_4,_'T0002')
 + 3016.16843159 Route_(3,_4,_'T0003') + 3046.2171508 Route_(3,_4,_'T0004')
 + 3685.7200623 Route_(3,_4,_'T0005') + 3365.76993172 Route_(3,_5,_'T0001')
 + 3747.56143988 Route_(3,_5,_'T0002') + 3066.77564203 Route_(3,_5,_'T0003')
 + 3097.32853794 Route_(3,_5,_'T0004') + 3747.56143988 Route_(3,_5,_'T0005')
 + 9999999999 Route_(4,_0,_'T0001') + 9999999999 Route_(4,_0,_'T0002')
 + 9999999999 Route_(4,_0,_'T0003') + 9999999999 Route_(4,_0,_'T0004')
 + 9999999999 Route_(4,_0,_'T0005') + 1983.31927379 Route_(4,_1,_'T0001')
 + 2208.29438262 Route_(4,_1,_'T0002') + 1807.13339373 Route_(4,_1,_'T0003')
 + 1825.13704477 Route_(4,_1,_'T0004') + 2208.29438262 Route_(4,_1,_'T0005')
 + 2385.57236275 Route_(4,_2,_'T0001') + 2656.17650048 Route_(4,_2,_'T0002')
 + 2173.6527935 Route_(4,_2,_'T0003') + 2195.30791122 Route_(4,_2,_'T0004')
 + 2656.17650048 Route_(4,_2,_'T0005') + 2844.23909396 Route_(4,_3,_'T0001')
 + 3166.87146494 Route_(4,_3,_'T0002') + 2591.57439469 Route_(4,_3,_'T0003')
 + 2617.39307593 Route_(4,_3,_'T0004') + 3166.87146494 Route_(4,_3,_'T0005')
 + 9999999999 Route_(4,_4,_'T0001') + 9999999999 Route_(4,_4,_'T0002')
 + 9999999999 Route_(4,_4,_'T0003') + 9999999999 Route_(4,_4,_'T0004')
 + 9999999999 Route_(4,_4,_'T0005') + 6008.76982923 Route_(4,_5,_'T0001')
 + 6690.36641538 Route_(4,_5,_'T0002') + 5474.98769217 Route_(4,_5,_'T0003')
 + 5529.53251337 Route_(4,_5,_'T0004') + 6690.36641538 Route_(4,_5,_'T0005')
 + 9999999999 Route_(5,_0,_'T0001') + 9999999999 Route_(5,_0,_'T0002')
 + 9999999999 Route_(5,_0,_'T0003') + 9999999999 Route_(5,_0,_'T0004')
 + 9999999999 Route_(5,_0,_'T0005') + 3249.66004043 Route_(5,_1,_'T0001')
 + 3618.28078189 Route_(5,_1,_'T0002') + 2960.98023901 Route_(5,_1,_'T0003')
 + 2990.47914326 Route_(5,_1,_'T0004') + 3618.28078189 Route_(5,_1,_'T0005')
 + 3710.79431913 Route_(5,_2,_'T0001') + 4131.72319671 Route_(5,_2,_'T0002')
 + 3381.15018595 Route_(5,_2,_'T0003') + 3414.83505297 Route_(5,_2,_'T0004')
 + 4131.72319671 Route_(5,_2,_'T0005') + 3752.95208984 Route_(5,_3,_'T0001')
 + 4178.66307647 Route_(5,_3,_'T0002') + 3419.56291972 Route_(5,_3,_'T0003')
 + 3453.6304754 Route_(5,_3,_'T0004') + 4178.66307647 Route_(5,_3,_'T0005')
 + 2281.33534827 Route_(5,_4,_'T0001') + 2540.11550285 Route_(5,_4,_'T0002')
 + 2078.67555398 Route_(5,_4,_'T0003') + 2099.3844565 Route_(5,_4,_'T0004')
 + 2540.11550285 Route_(5,_4,_'T0005') + 9999999999 Route_(5,_5,_'T0001')
 + 9999999999 Route_(5,_5,_'T0002') + 9999999999 Route_(5,_5,_'T0003')
 + 9999999999 Route_(5,_5,_'T0004') + 9999999999 Route_(5,_5,_'T0005')
 + 9999999999 Route_(6,_0,_'T0001') + 9999999999 Route_(6,_0,_'T0002')
 + 9999999999 Route_(6,_0,_'T0003') + 9999999999 Route_(6,_0,_'T0004')
 + 9999999999 Route_(6,_0,_'T0005') + 9999999999 Route_(6,_1,_'T0001')
 + 9999999999 Route_(6,_1,_'T0002') + 9999999999 Route_(6,_1,_'T0003')
 + 9999999999 Route_(6,_1,_'T0004') + 9999999999 Route_(6,_1,_'T0005')
 + 9999999999 Route_(6,_2,_'T0001') + 9999999999 Route_(6,_2,_'T0002')
 + 9999999999 Route_(6,_2,_'T0003') + 9999999999 Route_(6,_2,_'T0004')
 + 9999999999 Route_(6,_2,_'T0005') + 9999999999 Route_(6,_3,_'T0001')
 + 9999999999 Route_(6,_3,_'T0002') + 9999999999 Route_(6,_3,_'T0003')
 + 9999999999 Route_(6,_3,_'T0004') + 9999999999 Route_(6,_3,_'T0005')
 + 9999999999 Route_(6,_4,_'T0001') + 9999999999 Route_(6,_4,_'T0002')
 + 9999999999 Route_(6,_4,_'T0003') + 9999999999 Route_(6,_4,_'T0004')
 + 9999999999 Route_(6,_4,_'T0005') + 9999999999 Route_(6,_5,_'T0001')
 + 9999999999 Route_(6,_5,_'T0002') + 9999999999 Route_(6,_5,_'T0003')
 + 9999999999 Route_(6,_5,_'T0004') + 9999999999 Route_(6,_5,_'T0005')
 + 9999999999 Route_(6,_6,_'T0001') + 9999999999 Route_(6,_6,_'T0002')
 + 9999999999 Route_(6,_6,_'T0003') + 9999999999 Route_(6,_6,_'T0004')
 + 9999999999 Route_(6,_6,_'T0005')
Subject To
_C1: Route_(1,_1,_'T0001') + Route_(1,_1,_'T0002') + Route_(1,_1,_'T0003')
 + Route_(1,_1,_'T0004') + Route_(1,_1,_'T0005') = 0
_C10: Route_(4,_1,_'T0001') + Route_(4,_1,_'T0002') + Route_(4,_1,_'T0003')
 + Route_(4,_1,_'T0004') + Route_(4,_1,_'T0005') = 0
_C11: Route_(4,_2,_'T0001') + Route_(4,_2,_'T0002') + Route_(4,_2,_'T0003')
 + Route_(4,_2,_'T0004') + Route_(4,_2,_'T0005') = 0
_C12: Route_(4,_3,_'T0001') + Route_(4,_3,_'T0002') + Route_(4,_3,_'T0003')
 + Route_(4,_3,_'T0004') + Route_(4,_3,_'T0005') = 0
_C13: Route_(4,_4,_'T0001') + Route_(4,_4,_'T0002') + Route_(4,_4,_'T0003')
 + Route_(4,_4,_'T0004') + Route_(4,_4,_'T0005') = 0
_C14: Route_(5,_1,_'T0001') + Route_(5,_1,_'T0002') + Route_(5,_1,_'T0003')
 + Route_(5,_1,_'T0004') + Route_(5,_1,_'T0005') = 0
_C15: Route_(5,_2,_'T0001') + Route_(5,_2,_'T0002') + Route_(5,_2,_'T0003')
 + Route_(5,_2,_'T0004') + Route_(5,_2,_'T0005') = 0
_C16: Route_(5,_3,_'T0001') + Route_(5,_3,_'T0002') + Route_(5,_3,_'T0003')
 + Route_(5,_3,_'T0004') + Route_(5,_3,_'T0005') = 0
_C17: Route_(5,_4,_'T0001') + Route_(5,_4,_'T0002') + Route_(5,_4,_'T0003')
 + Route_(5,_4,_'T0004') + Route_(5,_4,_'T0005') = 0
_C18: Route_(5,_5,_'T0001') + Route_(5,_5,_'T0002') + Route_(5,_5,_'T0003')
 + Route_(5,_5,_'T0004') + Route_(5,_5,_'T0005') = 0
_C19: Route_(0,_1,_'T0001') + Route_(0,_1,_'T0002') + Route_(0,_1,_'T0003')
 + Route_(0,_1,_'T0004') + Route_(0,_1,_'T0005') + Route_(1,_1,_'T0001')
 + Route_(1,_1,_'T0002') + Route_(1,_1,_'T0003') + Route_(1,_1,_'T0004')
 + Route_(1,_1,_'T0005') + Route_(2,_1,_'T0001') + Route_(2,_1,_'T0002')
 + Route_(2,_1,_'T0003') + Route_(2,_1,_'T0004') + Route_(2,_1,_'T0005')
 + Route_(3,_1,_'T0001') + Route_(3,_1,_'T0002') + Route_(3,_1,_'T0003')
 + Route_(3,_1,_'T0004') + Route_(3,_1,_'T0005') + Route_(4,_1,_'T0001')
 + Route_(4,_1,_'T0002') + Route_(4,_1,_'T0003') + Route_(4,_1,_'T0004')
 + Route_(4,_1,_'T0005') + Route_(5,_1,_'T0001') + Route_(5,_1,_'T0002')
 + Route_(5,_1,_'T0003') + Route_(5,_1,_'T0004') + Route_(5,_1,_'T0005')
 + Route_(6,_1,_'T0001') + Route_(6,_1,_'T0002') + Route_(6,_1,_'T0003')
 + Route_(6,_1,_'T0004') + Route_(6,_1,_'T0005') = 1
_C2: Route_(1,_2,_'T0001') + Route_(1,_2,_'T0002') + Route_(1,_2,_'T0003')
 + Route_(1,_2,_'T0004') + Route_(1,_2,_'T0005') = 0
_C20: Route_(0,_2,_'T0001') + Route_(0,_2,_'T0002') + Route_(0,_2,_'T0003')
 + Route_(0,_2,_'T0004') + Route_(0,_2,_'T0005') + Route_(1,_2,_'T0001')
 + Route_(1,_2,_'T0002') + Route_(1,_2,_'T0003') + Route_(1,_2,_'T0004')
 + Route_(1,_2,_'T0005') + Route_(2,_2,_'T0001') + Route_(2,_2,_'T0002')
 + Route_(2,_2,_'T0003') + Route_(2,_2,_'T0004') + Route_(2,_2,_'T0005')
 + Route_(3,_2,_'T0001') + Route_(3,_2,_'T0002') + Route_(3,_2,_'T0003')
 + Route_(3,_2,_'T0004') + Route_(3,_2,_'T0005') + Route_(4,_2,_'T0001')
 + Route_(4,_2,_'T0002') + Route_(4,_2,_'T0003') + Route_(4,_2,_'T0004')
 + Route_(4,_2,_'T0005') + Route_(5,_2,_'T0001') + Route_(5,_2,_'T0002')
 + Route_(5,_2,_'T0003') + Route_(5,_2,_'T0004') + Route_(5,_2,_'T0005')
 + Route_(6,_2,_'T0001') + Route_(6,_2,_'T0002') + Route_(6,_2,_'T0003')
 + Route_(6,_2,_'T0004') + Route_(6,_2,_'T0005') = 1
_C21: Route_(0,_3,_'T0001') + Route_(0,_3,_'T0002') + Route_(0,_3,_'T0003')
 + Route_(0,_3,_'T0004') + Route_(0,_3,_'T0005') + Route_(1,_3,_'T0001')
 + Route_(1,_3,_'T0002') + Route_(1,_3,_'T0003') + Route_(1,_3,_'T0004')
 + Route_(1,_3,_'T0005') + Route_(2,_3,_'T0001') + Route_(2,_3,_'T0002')
 + Route_(2,_3,_'T0003') + Route_(2,_3,_'T0004') + Route_(2,_3,_'T0005')
 + Route_(3,_3,_'T0001') + Route_(3,_3,_'T0002') + Route_(3,_3,_'T0003')
 + Route_(3,_3,_'T0004') + Route_(3,_3,_'T0005') + Route_(4,_3,_'T0001')
 + Route_(4,_3,_'T0002') + Route_(4,_3,_'T0003') + Route_(4,_3,_'T0004')
 + Route_(4,_3,_'T0005') + Route_(5,_3,_'T0001') + Route_(5,_3,_'T0002')
 + Route_(5,_3,_'T0003') + Route_(5,_3,_'T0004') + Route_(5,_3,_'T0005')
 + Route_(6,_3,_'T0001') + Route_(6,_3,_'T0002') + Route_(6,_3,_'T0003')
 + Route_(6,_3,_'T0004') + Route_(6,_3,_'T0005') = 1
_C22: Route_(0,_4,_'T0001') + Route_(0,_4,_'T0002') + Route_(0,_4,_'T0003')
 + Route_(0,_4,_'T0004') + Route_(0,_4,_'T0005') + Route_(1,_4,_'T0001')
 + Route_(1,_4,_'T0002') + Route_(1,_4,_'T0003') + Route_(1,_4,_'T0004')
 + Route_(1,_4,_'T0005') + Route_(2,_4,_'T0001') + Route_(2,_4,_'T0002')
 + Route_(2,_4,_'T0003') + Route_(2,_4,_'T0004') + Route_(2,_4,_'T0005')
 + Route_(3,_4,_'T0001') + Route_(3,_4,_'T0002') + Route_(3,_4,_'T0003')
 + Route_(3,_4,_'T0004') + Route_(3,_4,_'T0005') + Route_(4,_4,_'T0001')
 + Route_(4,_4,_'T0002') + Route_(4,_4,_'T0003') + Route_(4,_4,_'T0004')
 + Route_(4,_4,_'T0005') + Route_(5,_4,_'T0001') + Route_(5,_4,_'T0002')
 + Route_(5,_4,_'T0003') + Route_(5,_4,_'T0004') + Route_(5,_4,_'T0005')
 + Route_(6,_4,_'T0001') + Route_(6,_4,_'T0002') + Route_(6,_4,_'T0003')
 + Route_(6,_4,_'T0004') + Route_(6,_4,_'T0005') = 1
_C23: Route_(0,_5,_'T0001') + Route_(0,_5,_'T0002') + Route_(0,_5,_'T0003')
 + Route_(0,_5,_'T0004') + Route_(0,_5,_'T0005') + Route_(1,_5,_'T0001')
 + Route_(1,_5,_'T0002') + Route_(1,_5,_'T0003') + Route_(1,_5,_'T0004')
 + Route_(1,_5,_'T0005') + Route_(2,_5,_'T0001') + Route_(2,_5,_'T0002')
 + Route_(2,_5,_'T0003') + Route_(2,_5,_'T0004') + Route_(2,_5,_'T0005')
 + Route_(3,_5,_'T0001') + Route_(3,_5,_'T0002') + Route_(3,_5,_'T0003')
 + Route_(3,_5,_'T0004') + Route_(3,_5,_'T0005') + Route_(4,_5,_'T0001')
 + Route_(4,_5,_'T0002') + Route_(4,_5,_'T0003') + Route_(4,_5,_'T0004')
 + Route_(4,_5,_'T0005') + Route_(5,_5,_'T0001') + Route_(5,_5,_'T0002')
 + Route_(5,_5,_'T0003') + Route_(5,_5,_'T0004') + Route_(5,_5,_'T0005')
 + Route_(6,_5,_'T0001') + Route_(6,_5,_'T0002') + Route_(6,_5,_'T0003')
 + Route_(6,_5,_'T0004') + Route_(6,_5,_'T0005') = 1
_C24: - Route_(0,_1,_'T0001') + Route_(1,_0,_'T0001')
 + 0 Route_(1,_1,_'T0001') + Route_(1,_2,_'T0001') + Route_(1,_3,_'T0001')
 + Route_(1,_4,_'T0001') + Route_(1,_5,_'T0001') + Route_(1,_6,_'T0001')
 - Route_(2,_1,_'T0001') - Route_(3,_1,_'T0001') - Route_(4,_1,_'T0001')
 - Route_(5,_1,_'T0001') - Route_(6,_1,_'T0001') = 0
_C25: - Route_(0,_1,_'T0002') + Route_(1,_0,_'T0002')
 + 0 Route_(1,_1,_'T0002') + Route_(1,_2,_'T0002') + Route_(1,_3,_'T0002')
 + Route_(1,_4,_'T0002') + Route_(1,_5,_'T0002') + Route_(1,_6,_'T0002')
 - Route_(2,_1,_'T0002') - Route_(3,_1,_'T0002') - Route_(4,_1,_'T0002')
 - Route_(5,_1,_'T0002') - Route_(6,_1,_'T0002') = 0
_C26: - Route_(0,_1,_'T0003') + Route_(1,_0,_'T0003')
 + 0 Route_(1,_1,_'T0003') + Route_(1,_2,_'T0003') + Route_(1,_3,_'T0003')
 + Route_(1,_4,_'T0003') + Route_(1,_5,_'T0003') + Route_(1,_6,_'T0003')
 - Route_(2,_1,_'T0003') - Route_(3,_1,_'T0003') - Route_(4,_1,_'T0003')
 - Route_(5,_1,_'T0003') - Route_(6,_1,_'T0003') = 0
_C27: - Route_(0,_1,_'T0004') + Route_(1,_0,_'T0004')
 + 0 Route_(1,_1,_'T0004') + Route_(1,_2,_'T0004') + Route_(1,_3,_'T0004')
 + Route_(1,_4,_'T0004') + Route_(1,_5,_'T0004') + Route_(1,_6,_'T0004')
 - Route_(2,_1,_'T0004') - Route_(3,_1,_'T0004') - Route_(4,_1,_'T0004')
 - Route_(5,_1,_'T0004') - Route_(6,_1,_'T0004') = 0
_C28: - Route_(0,_1,_'T0005') + Route_(1,_0,_'T0005')
 + 0 Route_(1,_1,_'T0005') + Route_(1,_2,_'T0005') + Route_(1,_3,_'T0005')
 + Route_(1,_4,_'T0005') + Route_(1,_5,_'T0005') + Route_(1,_6,_'T0005')
 - Route_(2,_1,_'T0005') - Route_(3,_1,_'T0005') - Route_(4,_1,_'T0005')
 - Route_(5,_1,_'T0005') - Route_(6,_1,_'T0005') = 0
_C29: - Route_(0,_2,_'T0001') - Route_(1,_2,_'T0001') + Route_(2,_0,_'T0001')
 + Route_(2,_1,_'T0001') + 0 Route_(2,_2,_'T0001') + Route_(2,_3,_'T0001')
 + Route_(2,_4,_'T0001') + Route_(2,_5,_'T0001') + Route_(2,_6,_'T0001')
 - Route_(3,_2,_'T0001') - Route_(4,_2,_'T0001') - Route_(5,_2,_'T0001')
 - Route_(6,_2,_'T0001') = 0
_C3: Route_(1,_4,_'T0001') + Route_(1,_4,_'T0002') + Route_(1,_4,_'T0003')
 + Route_(1,_4,_'T0004') + Route_(1,_4,_'T0005') = 0
_C30: - Route_(0,_2,_'T0002') - Route_(1,_2,_'T0002') + Route_(2,_0,_'T0002')
 + Route_(2,_1,_'T0002') + 0 Route_(2,_2,_'T0002') + Route_(2,_3,_'T0002')
 + Route_(2,_4,_'T0002') + Route_(2,_5,_'T0002') + Route_(2,_6,_'T0002')
 - Route_(3,_2,_'T0002') - Route_(4,_2,_'T0002') - Route_(5,_2,_'T0002')
 - Route_(6,_2,_'T0002') = 0
_C31: - Route_(0,_2,_'T0003') - Route_(1,_2,_'T0003') + Route_(2,_0,_'T0003')
 + Route_(2,_1,_'T0003') + 0 Route_(2,_2,_'T0003') + Route_(2,_3,_'T0003')
 + Route_(2,_4,_'T0003') + Route_(2,_5,_'T0003') + Route_(2,_6,_'T0003')
 - Route_(3,_2,_'T0003') - Route_(4,_2,_'T0003') - Route_(5,_2,_'T0003')
 - Route_(6,_2,_'T0003') = 0
_C32: - Route_(0,_2,_'T0004') - Route_(1,_2,_'T0004') + Route_(2,_0,_'T0004')
 + Route_(2,_1,_'T0004') + 0 Route_(2,_2,_'T0004') + Route_(2,_3,_'T0004')
 + Route_(2,_4,_'T0004') + Route_(2,_5,_'T0004') + Route_(2,_6,_'T0004')
 - Route_(3,_2,_'T0004') - Route_(4,_2,_'T0004') - Route_(5,_2,_'T0004')
 - Route_(6,_2,_'T0004') = 0
_C33: - Route_(0,_2,_'T0005') - Route_(1,_2,_'T0005') + Route_(2,_0,_'T0005')
 + Route_(2,_1,_'T0005') + 0 Route_(2,_2,_'T0005') + Route_(2,_3,_'T0005')
 + Route_(2,_4,_'T0005') + Route_(2,_5,_'T0005') + Route_(2,_6,_'T0005')
 - Route_(3,_2,_'T0005') - Route_(4,_2,_'T0005') - Route_(5,_2,_'T0005')
 - Route_(6,_2,_'T0005') = 0
_C34: - Route_(0,_3,_'T0001') - Route_(1,_3,_'T0001') - Route_(2,_3,_'T0001')
 + Route_(3,_0,_'T0001') + Route_(3,_1,_'T0001') + Route_(3,_2,_'T0001')
 + 0 Route_(3,_3,_'T0001') + Route_(3,_4,_'T0001') + Route_(3,_5,_'T0001')
 + Route_(3,_6,_'T0001') - Route_(4,_3,_'T0001') - Route_(5,_3,_'T0001')
 - Route_(6,_3,_'T0001') = 0
_C35: - Route_(0,_3,_'T0002') - Route_(1,_3,_'T0002') - Route_(2,_3,_'T0002')
 + Route_(3,_0,_'T0002') + Route_(3,_1,_'T0002') + Route_(3,_2,_'T0002')
 + 0 Route_(3,_3,_'T0002') + Route_(3,_4,_'T0002') + Route_(3,_5,_'T0002')
 + Route_(3,_6,_'T0002') - Route_(4,_3,_'T0002') - Route_(5,_3,_'T0002')
 - Route_(6,_3,_'T0002') = 0
_C36: - Route_(0,_3,_'T0003') - Route_(1,_3,_'T0003') - Route_(2,_3,_'T0003')
 + Route_(3,_0,_'T0003') + Route_(3,_1,_'T0003') + Route_(3,_2,_'T0003')
 + 0 Route_(3,_3,_'T0003') + Route_(3,_4,_'T0003') + Route_(3,_5,_'T0003')
 + Route_(3,_6,_'T0003') - Route_(4,_3,_'T0003') - Route_(5,_3,_'T0003')
 - Route_(6,_3,_'T0003') = 0
_C37: - Route_(0,_3,_'T0004') - Route_(1,_3,_'T0004') - Route_(2,_3,_'T0004')
 + Route_(3,_0,_'T0004') + Route_(3,_1,_'T0004') + Route_(3,_2,_'T0004')
 + 0 Route_(3,_3,_'T0004') + Route_(3,_4,_'T0004') + Route_(3,_5,_'T0004')
 + Route_(3,_6,_'T0004') - Route_(4,_3,_'T0004') - Route_(5,_3,_'T0004')
 - Route_(6,_3,_'T0004') = 0
_C38: - Route_(0,_3,_'T0005') - Route_(1,_3,_'T0005') - Route_(2,_3,_'T0005')
 + Route_(3,_0,_'T0005') + Route_(3,_1,_'T0005') + Route_(3,_2,_'T0005')
 + 0 Route_(3,_3,_'T0005') + Route_(3,_4,_'T0005') + Route_(3,_5,_'T0005')
 + Route_(3,_6,_'T0005') - Route_(4,_3,_'T0005') - Route_(5,_3,_'T0005')
 - Route_(6,_3,_'T0005') = 0
_C39: - Route_(0,_4,_'T0001') - Route_(1,_4,_'T0001') - Route_(2,_4,_'T0001')
 - Route_(3,_4,_'T0001') + Route_(4,_0,_'T0001') + Route_(4,_1,_'T0001')
 + Route_(4,_2,_'T0001') + Route_(4,_3,_'T0001') + 0 Route_(4,_4,_'T0001')
 + Route_(4,_5,_'T0001') + Route_(4,_6,_'T0001') - Route_(5,_4,_'T0001')
 - Route_(6,_4,_'T0001') = 0
_C4: Route_(2,_1,_'T0001') + Route_(2,_1,_'T0002') + Route_(2,_1,_'T0003')
 + Route_(2,_1,_'T0004') + Route_(2,_1,_'T0005') = 0
_C40: - Route_(0,_4,_'T0002') - Route_(1,_4,_'T0002') - Route_(2,_4,_'T0002')
 - Route_(3,_4,_'T0002') + Route_(4,_0,_'T0002') + Route_(4,_1,_'T0002')
 + Route_(4,_2,_'T0002') + Route_(4,_3,_'T0002') + 0 Route_(4,_4,_'T0002')
 + Route_(4,_5,_'T0002') + Route_(4,_6,_'T0002') - Route_(5,_4,_'T0002')
 - Route_(6,_4,_'T0002') = 0
_C41: - Route_(0,_4,_'T0003') - Route_(1,_4,_'T0003') - Route_(2,_4,_'T0003')
 - Route_(3,_4,_'T0003') + Route_(4,_0,_'T0003') + Route_(4,_1,_'T0003')
 + Route_(4,_2,_'T0003') + Route_(4,_3,_'T0003') + 0 Route_(4,_4,_'T0003')
 + Route_(4,_5,_'T0003') + Route_(4,_6,_'T0003') - Route_(5,_4,_'T0003')
 - Route_(6,_4,_'T0003') = 0
_C42: - Route_(0,_4,_'T0004') - Route_(1,_4,_'T0004') - Route_(2,_4,_'T0004')
 - Route_(3,_4,_'T0004') + Route_(4,_0,_'T0004') + Route_(4,_1,_'T0004')
 + Route_(4,_2,_'T0004') + Route_(4,_3,_'T0004') + 0 Route_(4,_4,_'T0004')
 + Route_(4,_5,_'T0004') + Route_(4,_6,_'T0004') - Route_(5,_4,_'T0004')
 - Route_(6,_4,_'T0004') = 0
_C43: - Route_(0,_4,_'T0005') - Route_(1,_4,_'T0005') - Route_(2,_4,_'T0005')
 - Route_(3,_4,_'T0005') + Route_(4,_0,_'T0005') + Route_(4,_1,_'T0005')
 + Route_(4,_2,_'T0005') + Route_(4,_3,_'T0005') + 0 Route_(4,_4,_'T0005')
 + Route_(4,_5,_'T0005') + Route_(4,_6,_'T0005') - Route_(5,_4,_'T0005')
 - Route_(6,_4,_'T0005') = 0
_C44: - Route_(0,_5,_'T0001') - Route_(1,_5,_'T0001') - Route_(2,_5,_'T0001')
 - Route_(3,_5,_'T0001') - Route_(4,_5,_'T0001') + Route_(5,_0,_'T0001')
 + Route_(5,_1,_'T0001') + Route_(5,_2,_'T0001') + Route_(5,_3,_'T0001')
 + Route_(5,_4,_'T0001') + 0 Route_(5,_5,_'T0001') + Route_(5,_6,_'T0001')
 - Route_(6,_5,_'T0001') = 0
_C45: - Route_(0,_5,_'T0002') - Route_(1,_5,_'T0002') - Route_(2,_5,_'T0002')
 - Route_(3,_5,_'T0002') - Route_(4,_5,_'T0002') + Route_(5,_0,_'T0002')
 + Route_(5,_1,_'T0002') + Route_(5,_2,_'T0002') + Route_(5,_3,_'T0002')
 + Route_(5,_4,_'T0002') + 0 Route_(5,_5,_'T0002') + Route_(5,_6,_'T0002')
 - Route_(6,_5,_'T0002') = 0
_C46: - Route_(0,_5,_'T0003') - Route_(1,_5,_'T0003') - Route_(2,_5,_'T0003')
 - Route_(3,_5,_'T0003') - Route_(4,_5,_'T0003') + Route_(5,_0,_'T0003')
 + Route_(5,_1,_'T0003') + Route_(5,_2,_'T0003') + Route_(5,_3,_'T0003')
 + Route_(5,_4,_'T0003') + 0 Route_(5,_5,_'T0003') + Route_(5,_6,_'T0003')
 - Route_(6,_5,_'T0003') = 0
_C47: - Route_(0,_5,_'T0004') - Route_(1,_5,_'T0004') - Route_(2,_5,_'T0004')
 - Route_(3,_5,_'T0004') - Route_(4,_5,_'T0004') + Route_(5,_0,_'T0004')
 + Route_(5,_1,_'T0004') + Route_(5,_2,_'T0004') + Route_(5,_3,_'T0004')
 + Route_(5,_4,_'T0004') + 0 Route_(5,_5,_'T0004') + Route_(5,_6,_'T0004')
 - Route_(6,_5,_'T0004') = 0
_C48: - Route_(0,_5,_'T0005') - Route_(1,_5,_'T0005') - Route_(2,_5,_'T0005')
 - Route_(3,_5,_'T0005') - Route_(4,_5,_'T0005') + Route_(5,_0,_'T0005')
 + Route_(5,_1,_'T0005') + Route_(5,_2,_'T0005') + Route_(5,_3,_'T0005')
 + Route_(5,_4,_'T0005') + 0 Route_(5,_5,_'T0005') + Route_(5,_6,_'T0005')
 - Route_(6,_5,_'T0005') = 0
_C49: Route_(0,_0,_'T0001') + Route_(0,_1,_'T0001') + Route_(0,_2,_'T0001')
 + Route_(0,_3,_'T0001') + Route_(0,_4,_'T0001') + Route_(0,_5,_'T0001')
 + Route_(0,_6,_'T0001') = 1
_C5: Route_(2,_2,_'T0001') + Route_(2,_2,_'T0002') + Route_(2,_2,_'T0003')
 + Route_(2,_2,_'T0004') + Route_(2,_2,_'T0005') = 0
_C50: Route_(0,_0,_'T0002') + Route_(0,_1,_'T0002') + Route_(0,_2,_'T0002')
 + Route_(0,_3,_'T0002') + Route_(0,_4,_'T0002') + Route_(0,_5,_'T0002')
 + Route_(0,_6,_'T0002') = 1
_C51: Route_(0,_0,_'T0003') + Route_(0,_1,_'T0003') + Route_(0,_2,_'T0003')
 + Route_(0,_3,_'T0003') + Route_(0,_4,_'T0003') + Route_(0,_5,_'T0003')
 + Route_(0,_6,_'T0003') = 1
_C52: Route_(0,_0,_'T0004') + Route_(0,_1,_'T0004') + Route_(0,_2,_'T0004')
 + Route_(0,_3,_'T0004') + Route_(0,_4,_'T0004') + Route_(0,_5,_'T0004')
 + Route_(0,_6,_'T0004') = 1
_C53: Route_(0,_0,_'T0005') + Route_(0,_1,_'T0005') + Route_(0,_2,_'T0005')
 + Route_(0,_3,_'T0005') + Route_(0,_4,_'T0005') + Route_(0,_5,_'T0005')
 + Route_(0,_6,_'T0005') = 1
_C54: Route_(0,_6,_'T0001') + Route_(1,_6,_'T0001') + Route_(2,_6,_'T0001')
 + Route_(3,_6,_'T0001') + Route_(4,_6,_'T0001') + Route_(5,_6,_'T0001')
 + Route_(6,_6,_'T0001') = 1
_C55: Route_(0,_6,_'T0002') + Route_(1,_6,_'T0002') + Route_(2,_6,_'T0002')
 + Route_(3,_6,_'T0002') + Route_(4,_6,_'T0002') + Route_(5,_6,_'T0002')
 + Route_(6,_6,_'T0002') = 1
_C56: Route_(0,_6,_'T0003') + Route_(1,_6,_'T0003') + Route_(2,_6,_'T0003')
 + Route_(3,_6,_'T0003') + Route_(4,_6,_'T0003') + Route_(5,_6,_'T0003')
 + Route_(6,_6,_'T0003') = 1
_C57: Route_(0,_6,_'T0004') + Route_(1,_6,_'T0004') + Route_(2,_6,_'T0004')
 + Route_(3,_6,_'T0004') + Route_(4,_6,_'T0004') + Route_(5,_6,_'T0004')
 + Route_(6,_6,_'T0004') = 1
_C58: Route_(0,_6,_'T0005') + Route_(1,_6,_'T0005') + Route_(2,_6,_'T0005')
 + Route_(3,_6,_'T0005') + Route_(4,_6,_'T0005') + Route_(5,_6,_'T0005')
 + Route_(6,_6,_'T0005') = 1
_C59: Route_(0,_1,_'T0001') + Route_(1,_1,_'T0001') + Route_(2,_1,_'T0001')
 + Route_(3,_1,_'T0001') + Route_(4,_1,_'T0001') + Route_(5,_1,_'T0001')
 + Route_(6,_1,_'T0001') = 0
_C6: Route_(3,_1,_'T0001') + Route_(3,_1,_'T0002') + Route_(3,_1,_'T0003')
 + Route_(3,_1,_'T0004') + Route_(3,_1,_'T0005') = 0
_C60: Route_(0,_2,_'T0001') + Route_(1,_2,_'T0001') + Route_(2,_2,_'T0001')
 + Route_(3,_2,_'T0001') + Route_(4,_2,_'T0001') + Route_(5,_2,_'T0001')
 + Route_(6,_2,_'T0001') = 0
_C61: Route_(0,_3,_'T0001') + Route_(1,_3,_'T0001') + Route_(2,_3,_'T0001')
 + Route_(3,_3,_'T0001') + Route_(4,_3,_'T0001') + Route_(5,_3,_'T0001')
 + Route_(6,_3,_'T0001') = 0
_C62: Route_(0,_4,_'T0001') + Route_(1,_4,_'T0001') + Route_(2,_4,_'T0001')
 + Route_(3,_4,_'T0001') + Route_(4,_4,_'T0001') + Route_(5,_4,_'T0001')
 + Route_(6,_4,_'T0001') = 0
_C63: Route_(0,_5,_'T0001') + Route_(1,_5,_'T0001') + Route_(2,_5,_'T0001')
 + Route_(3,_5,_'T0001') + Route_(4,_5,_'T0001') + Route_(5,_5,_'T0001')
 + Route_(6,_5,_'T0001') = 0
_C64: Route_(0,_0,_'T0001') + Route_(1,_0,_'T0001') + Route_(2,_0,_'T0001')
 + Route_(3,_0,_'T0001') + Route_(4,_0,_'T0001') + Route_(5,_0,_'T0001')
 + Route_(6,_0,_'T0001') = 0
_C65: Route_(0,_0,_'T0002') + Route_(1,_0,_'T0002') + Route_(2,_0,_'T0002')
 + Route_(3,_0,_'T0002') + Route_(4,_0,_'T0002') + Route_(5,_0,_'T0002')
 + Route_(6,_0,_'T0002') = 0
_C66: Route_(0,_0,_'T0003') + Route_(1,_0,_'T0003') + Route_(2,_0,_'T0003')
 + Route_(3,_0,_'T0003') + Route_(4,_0,_'T0003') + Route_(5,_0,_'T0003')
 + Route_(6,_0,_'T0003') = 0
_C67: Route_(0,_0,_'T0004') + Route_(1,_0,_'T0004') + Route_(2,_0,_'T0004')
 + Route_(3,_0,_'T0004') + Route_(4,_0,_'T0004') + Route_(5,_0,_'T0004')
 + Route_(6,_0,_'T0004') = 0
_C68: Route_(0,_0,_'T0005') + Route_(1,_0,_'T0005') + Route_(2,_0,_'T0005')
 + Route_(3,_0,_'T0005') + Route_(4,_0,_'T0005') + Route_(5,_0,_'T0005')
 + Route_(6,_0,_'T0005') = 0
_C69: Route_(6,_0,_'T0001') + Route_(6,_1,_'T0001') + Route_(6,_2,_'T0001')
 + Route_(6,_3,_'T0001') + Route_(6,_4,_'T0001') + Route_(6,_5,_'T0001')
 + Route_(6,_6,_'T0001') = 0
_C7: Route_(3,_2,_'T0001') + Route_(3,_2,_'T0002') + Route_(3,_2,_'T0003')
 + Route_(3,_2,_'T0004') + Route_(3,_2,_'T0005') = 0
_C70: Route_(6,_0,_'T0002') + Route_(6,_1,_'T0002') + Route_(6,_2,_'T0002')
 + Route_(6,_3,_'T0002') + Route_(6,_4,_'T0002') + Route_(6,_5,_'T0002')
 + Route_(6,_6,_'T0002') = 0
_C71: Route_(6,_0,_'T0003') + Route_(6,_1,_'T0003') + Route_(6,_2,_'T0003')
 + Route_(6,_3,_'T0003') + Route_(6,_4,_'T0003') + Route_(6,_5,_'T0003')
 + Route_(6,_6,_'T0003') = 0
_C72: Route_(6,_0,_'T0004') + Route_(6,_1,_'T0004') + Route_(6,_2,_'T0004')
 + Route_(6,_3,_'T0004') + Route_(6,_4,_'T0004') + Route_(6,_5,_'T0004')
 + Route_(6,_6,_'T0004') = 0
_C73: Route_(6,_0,_'T0005') + Route_(6,_1,_'T0005') + Route_(6,_2,_'T0005')
 + Route_(6,_3,_'T0005') + Route_(6,_4,_'T0005') + Route_(6,_5,_'T0005')
 + Route_(6,_6,_'T0005') = 0
_C8: Route_(3,_3,_'T0001') + Route_(3,_3,_'T0002') + Route_(3,_3,_'T0003')
 + Route_(3,_3,_'T0004') + Route_(3,_3,_'T0005') = 0
_C9: Route_(3,_4,_'T0001') + Route_(3,_4,_'T0002') + Route_(3,_4,_'T0003')
 + Route_(3,_4,_'T0004') + Route_(3,_4,_'T0005') = 0
Binaries
Route_(0,_0,_'T0001')
Route_(0,_0,_'T0002')
Route_(0,_0,_'T0003')
Route_(0,_0,_'T0004')
Route_(0,_0,_'T0005')
Route_(0,_1,_'T0001')
Route_(0,_1,_'T0002')
Route_(0,_1,_'T0003')
Route_(0,_1,_'T0004')
Route_(0,_1,_'T0005')
Route_(0,_2,_'T0001')
Route_(0,_2,_'T0002')
Route_(0,_2,_'T0003')
Route_(0,_2,_'T0004')
Route_(0,_2,_'T0005')
Route_(0,_3,_'T0001')
Route_(0,_3,_'T0002')
Route_(0,_3,_'T0003')
Route_(0,_3,_'T0004')
Route_(0,_3,_'T0005')
Route_(0,_4,_'T0001')
Route_(0,_4,_'T0002')
Route_(0,_4,_'T0003')
Route_(0,_4,_'T0004')
Route_(0,_4,_'T0005')
Route_(0,_5,_'T0001')
Route_(0,_5,_'T0002')
Route_(0,_5,_'T0003')
Route_(0,_5,_'T0004')
Route_(0,_5,_'T0005')
Route_(0,_6,_'T0001')
Route_(0,_6,_'T0002')
Route_(0,_6,_'T0003')
Route_(0,_6,_'T0004')
Route_(0,_6,_'T0005')
Route_(1,_0,_'T0001')
Route_(1,_0,_'T0002')
Route_(1,_0,_'T0003')
Route_(1,_0,_'T0004')
Route_(1,_0,_'T0005')
Route_(1,_1,_'T0001')
Route_(1,_1,_'T0002')
Route_(1,_1,_'T0003')
Route_(1,_1,_'T0004')
Route_(1,_1,_'T0005')
Route_(1,_2,_'T0001')
Route_(1,_2,_'T0002')
Route_(1,_2,_'T0003')
Route_(1,_2,_'T0004')
Route_(1,_2,_'T0005')
Route_(1,_3,_'T0001')
Route_(1,_3,_'T0002')
Route_(1,_3,_'T0003')
Route_(1,_3,_'T0004')
Route_(1,_3,_'T0005')
Route_(1,_4,_'T0001')
Route_(1,_4,_'T0002')
Route_(1,_4,_'T0003')
Route_(1,_4,_'T0004')
Route_(1,_4,_'T0005')
Route_(1,_5,_'T0001')
Route_(1,_5,_'T0002')
Route_(1,_5,_'T0003')
Route_(1,_5,_'T0004')
Route_(1,_5,_'T0005')
Route_(1,_6,_'T0001')
Route_(1,_6,_'T0002')
Route_(1,_6,_'T0003')
Route_(1,_6,_'T0004')
Route_(1,_6,_'T0005')
Route_(2,_0,_'T0001')
Route_(2,_0,_'T0002')
Route_(2,_0,_'T0003')
Route_(2,_0,_'T0004')
Route_(2,_0,_'T0005')
Route_(2,_1,_'T0001')
Route_(2,_1,_'T0002')
Route_(2,_1,_'T0003')
Route_(2,_1,_'T0004')
Route_(2,_1,_'T0005')
Route_(2,_2,_'T0001')
Route_(2,_2,_'T0002')
Route_(2,_2,_'T0003')
Route_(2,_2,_'T0004')
Route_(2,_2,_'T0005')
Route_(2,_3,_'T0001')
Route_(2,_3,_'T0002')
Route_(2,_3,_'T0003')
Route_(2,_3,_'T0004')
Route_(2,_3,_'T0005')
Route_(2,_4,_'T0001')
Route_(2,_4,_'T0002')
Route_(2,_4,_'T0003')
Route_(2,_4,_'T0004')
Route_(2,_4,_'T0005')
Route_(2,_5,_'T0001')
Route_(2,_5,_'T0002')
Route_(2,_5,_'T0003')
Route_(2,_5,_'T0004')
Route_(2,_5,_'T0005')
Route_(2,_6,_'T0001')
Route_(2,_6,_'T0002')
Route_(2,_6,_'T0003')
Route_(2,_6,_'T0004')
Route_(2,_6,_'T0005')
Route_(3,_0,_'T0001')
Route_(3,_0,_'T0002')
Route_(3,_0,_'T0003')
Route_(3,_0,_'T0004')
Route_(3,_0,_'T0005')
Route_(3,_1,_'T0001')
Route_(3,_1,_'T0002')
Route_(3,_1,_'T0003')
Route_(3,_1,_'T0004')
Route_(3,_1,_'T0005')
Route_(3,_2,_'T0001')
Route_(3,_2,_'T0002')
Route_(3,_2,_'T0003')
Route_(3,_2,_'T0004')
Route_(3,_2,_'T0005')
Route_(3,_3,_'T0001')
Route_(3,_3,_'T0002')
Route_(3,_3,_'T0003')
Route_(3,_3,_'T0004')
Route_(3,_3,_'T0005')
Route_(3,_4,_'T0001')
Route_(3,_4,_'T0002')
Route_(3,_4,_'T0003')
Route_(3,_4,_'T0004')
Route_(3,_4,_'T0005')
Route_(3,_5,_'T0001')
Route_(3,_5,_'T0002')
Route_(3,_5,_'T0003')
Route_(3,_5,_'T0004')
Route_(3,_5,_'T0005')
Route_(3,_6,_'T0001')
Route_(3,_6,_'T0002')
Route_(3,_6,_'T0003')
Route_(3,_6,_'T0004')
Route_(3,_6,_'T0005')
Route_(4,_0,_'T0001')
Route_(4,_0,_'T0002')
Route_(4,_0,_'T0003')
Route_(4,_0,_'T0004')
Route_(4,_0,_'T0005')
Route_(4,_1,_'T0001')
Route_(4,_1,_'T0002')
Route_(4,_1,_'T0003')
Route_(4,_1,_'T0004')
Route_(4,_1,_'T0005')
Route_(4,_2,_'T0001')
Route_(4,_2,_'T0002')
Route_(4,_2,_'T0003')
Route_(4,_2,_'T0004')
Route_(4,_2,_'T0005')
Route_(4,_3,_'T0001')
Route_(4,_3,_'T0002')
Route_(4,_3,_'T0003')
Route_(4,_3,_'T0004')
Route_(4,_3,_'T0005')
Route_(4,_4,_'T0001')
Route_(4,_4,_'T0002')
Route_(4,_4,_'T0003')
Route_(4,_4,_'T0004')
Route_(4,_4,_'T0005')
Route_(4,_5,_'T0001')
Route_(4,_5,_'T0002')
Route_(4,_5,_'T0003')
Route_(4,_5,_'T0004')
Route_(4,_5,_'T0005')
Route_(4,_6,_'T0001')
Route_(4,_6,_'T0002')
Route_(4,_6,_'T0003')
Route_(4,_6,_'T0004')
Route_(4,_6,_'T0005')
Route_(5,_0,_'T0001')
Route_(5,_0,_'T0002')
Route_(5,_0,_'T0003')
Route_(5,_0,_'T0004')
Route_(5,_0,_'T0005')
Route_(5,_1,_'T0001')
Route_(5,_1,_'T0002')
Route_(5,_1,_'T0003')
Route_(5,_1,_'T0004')
Route_(5,_1,_'T0005')
Route_(5,_2,_'T0001')
Route_(5,_2,_'T0002')
Route_(5,_2,_'T0003')
Route_(5,_2,_'T0004')
Route_(5,_2,_'T0005')
Route_(5,_3,_'T0001')
Route_(5,_3,_'T0002')
Route_(5,_3,_'T0003')
Route_(5,_3,_'T0004')
Route_(5,_3,_'T0005')
Route_(5,_4,_'T0001')
Route_(5,_4,_'T0002')
Route_(5,_4,_'T0003')
Route_(5,_4,_'T0004')
Route_(5,_4,_'T0005')
Route_(5,_5,_'T0001')
Route_(5,_5,_'T0002')
Route_(5,_5,_'T0003')
Route_(5,_5,_'T0004')
Route_(5,_5,_'T0005')
Route_(5,_6,_'T0001')
Route_(5,_6,_'T0002')
Route_(5,_6,_'T0003')
Route_(5,_6,_'T0004')
Route_(5,_6,_'T0005')
Route_(6,_0,_'T0001')
Route_(6,_0,_'T0002')
Route_(6,_0,_'T0003')
Route_(6,_0,_'T0004')
Route_(6,_0,_'T0005')
Route_(6,_1,_'T0001')
Route_(6,_1,_'T0002')
Route_(6,_1,_'T0003')
Route_(6,_1,_'T0004')
Route_(6,_1,_'T0005')
Route_(6,_2,_'T0001')
Route_(6,_2,_'T0002')
Route_(6,_2,_'T0003')
Route_(6,_2,_'T0004')
Route_(6,_2,_'T0005')
Route_(6,_3,_'T0001')
Route_(6,_3,_'T0002')
Route_(6,_3,_'T0003')
Route_(6,_3,_'T0004')
Route_(6,_3,_'T0005')
Route_(6,_4,_'T0001')
Route_(6,_4,_'T0002')
Route_(6,_4,_'T0003')
Route_(6,_4,_'T0004')
Route_(6,_4,_'T0005')
Route_(6,_5,_'T0001')
Route_(6,_5,_'T0002')
Route_(6,_5,_'T0003')
Route_(6,_5,_'T0004')
Route_(6,_5,_'T0005')
Route_(6,_6,_'T0001')
Route_(6,_6,_'T0002')
Route_(6,_6,_'T0003')
Route_(6,_6,_'T0004')
Route_(6,_6,_'T0005')
End
